experiments/knapsack_bounded/knapsack_bounded_20_3.mps.log
Algorithm statistics:
zero_reductions => 194935
max_basis_size => 1576
queued_pairs => 0
built_pairs => 196934
reduced_pairs => 196573
eliminated_by_truncation => 82
removed_by_autoreduction => 0
eliminated_by_gcd => 1044166
time => 0.10713882
memory => 0.06989838927984238
4ti2 results
4ti2 time => 0.173926444
